c Result of efficient AIG-to-CNF conversion using package CNF
p cnf 347 1360
-2 3 221 0
-2 -3 -221 0
2 -3 221 0
2 3 -221 0
-3 4 193 0
-3 -4 -193 0
3 -4 193 0
3 4 -193 0
-4 -5 -168 0
-4 5 168 0
4 5 -168 0
4 -5 168 0
-5 -6 -140 0
-5 6 140 0
5 6 -140 0
5 -6 140 0
-6 -7 -113 0
-6 7 113 0
6 7 -113 0
6 -7 113 0
-7 -8 -112 0
-7 8 112 0
7 8 -112 0
7 -8 112 0
-8 9 82 0
-8 -9 -82 0
8 -9 82 0
8 9 -82 0
-9 10 79 0
-9 -10 -79 0
9 -10 79 0
9 10 -79 0
-10 11 54 0
-10 -11 -54 0
10 -11 54 0
10 11 -54 0
-11 12 42 0
-11 -12 -42 0
11 -12 42 0
11 12 -42 0
-12 13 29 0
-12 -13 -29 0
12 -13 29 0
12 13 -29 0
-13 14 24 0
-13 -14 -24 0
13 -14 24 0
13 14 -24 0
-14 15 18 0
-14 -15 -18 0
14 -15 18 0
14 15 -18 0
-15 -16 -17 0
-15 16 17 0
15 16 -17 0
15 -16 17 0
16 -329 -331 0
-16 329 0
-16 331 0
17 -335 -338 0
-17 335 0
-17 338 0
-18 19 20 0
-18 19 21 0
18 -19 0
18 -20 -21 0
19 -329 -331 -335 -344 0
-19 344 0
-19 329 0
-19 335 0
-19 331 0
20 -338 -339 0
-20 338 0
-20 339 0
-21 -22 -23 0
-21 22 23 0
21 22 -23 0
21 -22 23 0
22 -329 -344 0
-22 329 0
-22 344 0
23 -331 -335 0
-23 331 0
-23 335 0
-24 -25 -28 0
-24 25 28 0
24 25 -28 0
24 -25 28 0
-25 -26 -27 0
-25 26 27 0
25 26 -27 0
25 -26 27 0
26 -328 -339 0
-26 328 0
-26 339 0
27 -334 -340 0
-27 334 0
-27 340 0
28 -336 -341 0
-28 336 0
-28 341 0
-29 30 31 0
-29 31 37 0
-29 30 37 0
29 -30 -37 0
29 -31 -37 0
29 -30 -31 0
-30 20 21 0
-30 -20 -21 0
30 -20 21 0
30 20 -21 0
-31 32 33 0
-31 32 34 0
31 -32 0
31 -33 -34 0
32 -331 -335 -339 -344 0
-32 344 0
-32 331 0
-32 339 0
-32 335 0
33 -334 -338 0
-33 334 0
-33 338 0
-34 -35 -36 0
-34 35 36 0
34 35 -36 0
34 -35 36 0
35 -335 -344 0
-35 335 0
-35 344 0
36 -331 -339 0
-36 331 0
-36 339 0
-37 -38 -41 0
-37 38 41 0
37 38 -41 0
37 -38 41 0
-38 -39 -40 0
-38 39 40 0
38 39 -40 0
38 -39 40 0
39 -328 -334 0
-39 328 0
-39 334 0
40 -336 -340 0
-40 336 0
-40 340 0
41 -337 -341 0
-41 337 0
-41 341 0
-42 43 50 0
-42 -43 -50 0
42 -43 50 0
42 43 -50 0
-43 44 45 0
-43 -44 -45 0
43 -44 45 0
43 44 -45 0
-44 39 41 0
-44 40 41 0
-44 39 40 0
44 -39 -40 0
44 -40 -41 0
44 -39 -41 0
-45 -46 -49 0
-45 46 49 0
45 46 -49 0
45 -46 49 0
-46 -47 -48 0
-46 47 48 0
46 47 -48 0
46 -47 48 0
47 -337 -346 0
-47 337 0
-47 346 0
48 -332 -343 0
-48 332 0
-48 343 0
49 -327 -330 0
-49 327 0
-49 330 0
-50 51 53 0
-50 52 53 0
-50 51 52 0
50 -51 -52 0
50 -52 -53 0
50 -51 -53 0
51 -343 -346 0
-51 343 0
-51 346 0
52 -327 -332 0
-52 327 0
-52 332 0
53 -330 -342 0
-53 330 0
-53 342 0
-54 55 57 0
-54 57 70 0
-54 55 70 0
54 -55 -70 0
54 -57 -70 0
54 -55 -57 0
-55 37 56 0
-55 -37 -56 0
55 -37 56 0
55 37 -56 0
-56 30 31 0
-56 -30 -31 0
56 -30 31 0
56 30 -31 0
-57 58 59 0
-57 59 65 0
-57 58 65 0
57 -58 -65 0
57 -59 -65 0
57 -58 -59 0
-58 33 34 0
-58 -33 -34 0
58 -33 34 0
58 33 -34 0
-59 60 61 0
-59 60 62 0
59 -60 0
59 -61 -62 0
60 -331 -334 -339 -344 0
-60 344 0
-60 331 0
-60 339 0
-60 334 0
61 -336 -338 0
-61 336 0
-61 338 0
-62 -63 -64 0
-62 63 64 0
62 63 -64 0
62 -63 64 0
63 -339 -344 0
-63 339 0
-63 344 0
64 -331 -334 0
-64 331 0
-64 334 0
-65 -66 -69 0
-65 66 69 0
65 66 -69 0
65 -66 69 0
-66 -67 -68 0
-66 67 68 0
66 67 -68 0
66 -67 68 0
67 -328 -336 0
-67 328 0
-67 336 0
68 -337 -340 0
-68 337 0
-68 340 0
69 -341 -343 0
-69 341 0
-69 343 0
-70 71 75 0
-70 -71 -75 0
70 -71 75 0
70 71 -75 0
-71 72 73 0
-71 -72 -73 0
71 -72 73 0
71 72 -73 0
-72 67 69 0
-72 68 69 0
-72 67 68 0
72 -67 -68 0
72 -68 -69 0
72 -67 -69 0
-73 53 74 0
-73 -53 -74 0
73 -53 74 0
73 53 -74 0
-74 -51 -52 0
-74 51 52 0
74 51 -52 0
74 -51 52 0
-75 76 78 0
-75 77 78 0
-75 76 77 0
75 -76 -77 0
75 -77 -78 0
75 -76 -78 0
76 -327 -346 0
-76 327 0
-76 346 0
77 -332 -342 0
-77 332 0
-77 342 0
78 -330 -333 0
-78 330 0
-78 333 0
-79 -80 -81 0
-79 80 81 0
79 80 -81 0
79 -80 81 0
-80 72 73 0
-80 73 75 0
-80 72 75 0
80 -72 -75 0
80 -73 -75 0
80 -72 -73 0
81 -342 -345 0
-81 342 0
-81 345 0
-82 83 85 0
-82 85 109 0
-82 83 109 0
82 -83 -109 0
82 -85 -109 0
82 -83 -85 0
-83 70 84 0
-83 -70 -84 0
83 -70 84 0
83 70 -84 0
-84 55 57 0
-84 -55 -57 0
84 -55 57 0
84 55 -57 0
-85 86 88 0
-85 88 101 0
-85 86 101 0
85 -86 -101 0
85 -88 -101 0
85 -86 -88 0
-86 65 87 0
-86 -65 -87 0
86 -65 87 0
86 65 -87 0
-87 58 59 0
-87 -58 -59 0
87 -58 59 0
87 58 -59 0
-88 89 90 0
-88 90 96 0
-88 89 96 0
88 -89 -96 0
88 -90 -96 0
88 -89 -90 0
-89 61 62 0
-89 -61 -62 0
89 -61 62 0
89 61 -62 0
-90 91 92 0
-90 91 93 0
90 -91 0
90 -92 -93 0
91 -331 -334 -336 -344 0
-91 344 0
-91 331 0
-91 336 0
-91 334 0
92 -337 -338 0
-92 337 0
-92 338 0
-93 -94 -95 0
-93 94 95 0
93 94 -95 0
93 -94 95 0
94 -334 -344 0
-94 334 0
-94 344 0
95 -331 -336 0
-95 331 0
-95 336 0
-96 -97 -100 0
-96 97 100 0
96 97 -100 0
96 -97 100 0
-97 -98 -99 0
-97 98 99 0
97 98 -99 0
97 -98 99 0
98 -328 -337 0
-98 328 0
-98 337 0
99 -340 -343 0
-99 340 0
-99 343 0
100 -327 -341 0
-100 327 0
-100 341 0
-101 -102 -106 0
-101 102 106 0
101 102 -106 0
101 -102 106 0
-102 103 104 0
-102 -103 -104 0
102 -103 104 0
102 103 -104 0
-103 98 100 0
-103 99 100 0
-103 98 99 0
103 -98 -99 0
103 -99 -100 0
103 -98 -100 0
-104 78 105 0
-104 -78 -105 0
104 -78 105 0
104 78 -105 0
-105 -76 -77 0
-105 76 77 0
105 76 -77 0
105 -76 77 0
106 -107 -108 0
-106 107 0
-106 108 0
107 -342 -346 0
-107 342 0
-107 346 0
108 -332 -333 0
-108 332 0
-108 333 0
-109 110 111 0
-109 -110 -111 0
109 -110 111 0
109 110 -111 0
110 -333 -345 0
-110 333 0
-110 345 0
-111 103 104 0
-111 104 106 0
-111 103 106 0
111 -104 -106 0
111 -103 -104 0
111 -103 -106 0
112 -110 -111 0
-112 110 0
-112 111 0
113 -114 -116 0
-113 114 0
-113 116 0
-114 109 115 0
-114 -109 -115 0
114 -109 115 0
114 109 -115 0
-115 83 85 0
-115 -83 -85 0
115 -83 85 0
115 83 -85 0
-116 117 119 0
-116 119 139 0
-116 117 139 0
116 -119 -139 0
116 -117 -119 0
116 -117 -139 0
-117 101 118 0
-117 -101 -118 0
117 -101 118 0
117 101 -118 0
-118 86 88 0
-118 -86 -88 0
118 -86 88 0
118 86 -88 0
-119 120 122 0
-119 122 135 0
-119 120 135 0
119 -120 -135 0
119 -122 -135 0
119 -120 -122 0
-120 96 121 0
-120 -96 -121 0
120 -96 121 0
120 96 -121 0
-121 89 90 0
-121 -89 -90 0
121 -89 90 0
121 89 -90 0
-122 123 124 0
-122 124 130 0
-122 123 130 0
122 -123 -130 0
122 -124 -130 0
122 -123 -124 0
-123 92 93 0
-123 -92 -93 0
123 -92 93 0
123 92 -93 0
-124 125 126 0
-124 125 127 0
124 -125 0
124 -126 -127 0
125 -331 -336 -337 -344 0
-125 344 0
-125 331 0
-125 337 0
-125 336 0
126 -338 -343 0
-126 338 0
-126 343 0
-127 -128 -129 0
-127 128 129 0
127 128 -129 0
127 -128 129 0
128 -336 -344 0
-128 336 0
-128 344 0
129 -331 -337 0
-129 331 0
-129 337 0
-130 -131 -134 0
-130 131 134 0
130 131 -134 0
130 -131 134 0
-131 -132 -133 0
-131 132 133 0
131 132 -133 0
131 -132 133 0
132 -328 -343 0
-132 328 0
-132 343 0
133 -327 -340 0
-133 327 0
-133 340 0
134 -341 -342 0
-134 341 0
-134 342 0
-135 136 137 0
-135 -136 -137 0
135 -136 137 0
135 136 -137 0
-136 -107 -108 0
-136 107 108 0
136 107 -108 0
136 -107 108 0
-137 131 138 0
-137 134 138 0
137 -138 0
137 -131 -134 0
138 -132 -133 0
-138 132 0
-138 133 0
139 -136 -137 0
-139 136 0
-139 137 0
140 -141 -142 0
-140 141 0
-140 142 0
-141 114 116 0
-141 -114 -116 0
141 -114 116 0
141 114 -116 0
142 -143 -145 0
-142 143 0
-142 145 0
-143 139 144 0
-143 -139 -144 0
143 -139 144 0
143 139 -144 0
-144 117 119 0
-144 -117 -119 0
144 -117 119 0
144 117 -119 0
-145 146 148 0
-145 148 167 0
-145 146 167 0
145 -148 -167 0
145 -146 -148 0
145 -146 -167 0
-146 135 147 0
-146 -135 -147 0
146 -135 147 0
146 135 -147 0
-147 120 122 0
-147 -120 -122 0
147 -120 122 0
147 120 -122 0
-148 149 151 0
-148 151 164 0
-148 149 164 0
148 -149 -164 0
148 -151 -164 0
148 -149 -151 0
-149 130 150 0
-149 -130 -150 0
149 -130 150 0
149 130 -150 0
-150 123 124 0
-150 -123 -124 0
150 -123 124 0
150 123 -124 0
-151 152 153 0
-151 153 159 0
-151 152 159 0
151 -152 -159 0
151 -153 -159 0
151 -152 -153 0
-152 126 127 0
-152 -126 -127 0
152 -126 127 0
152 126 -127 0
-153 154 155 0
-153 154 156 0
153 -154 0
153 -155 -156 0
154 -331 -337 -343 -344 0
-154 344 0
-154 331 0
-154 343 0
-154 337 0
155 -327 -338 0
-155 327 0
-155 338 0
-156 -157 -158 0
-156 157 158 0
156 157 -158 0
156 -157 158 0
157 -337 -344 0
-157 337 0
-157 344 0
158 -331 -343 0
-158 331 0
-158 343 0
-159 -160 -163 0
-159 160 163 0
159 160 -163 0
159 -160 163 0
-160 -161 -162 0
-160 161 162 0
160 161 -162 0
160 -161 162 0
161 -327 -328 0
-161 327 0
-161 328 0
162 -340 -342 0
-162 340 0
-162 342 0
163 -333 -341 0
-163 333 0
-163 341 0
-164 165 166 0
-164 -165 -166 0
164 -165 166 0
164 165 -166 0
165 -333 -346 0
-165 333 0
-165 346 0
-166 161 163 0
-166 162 163 0
-166 161 162 0
166 -161 -162 0
166 -162 -163 0
166 -161 -163 0
167 -165 -166 0
-167 165 0
-167 166 0
168 -169 -170 0
-168 169 0
-168 170 0
-169 -141 -142 0
-169 141 142 0
169 141 -142 0
169 -141 142 0
170 -171 -172 0
-170 171 0
-170 172 0
-171 143 145 0
-171 -143 -145 0
171 -143 145 0
171 143 -145 0
172 -173 -175 0
-172 173 0
-172 175 0
-173 167 174 0
-173 -167 -174 0
173 -167 174 0
173 167 -174 0
-174 146 148 0
-174 -146 -148 0
174 -146 148 0
174 146 -148 0
175 -176 -178 0
-175 176 0
-175 178 0
-176 164 177 0
-176 -164 -177 0
176 -164 177 0
176 164 -177 0
-177 149 151 0
-177 -149 -151 0
177 -149 151 0
177 149 -151 0
-178 179 181 0
-178 181 192 0
-178 179 192 0
178 -181 -192 0
178 -179 -181 0
178 -179 -192 0
-179 159 180 0
-179 -159 -180 0
179 -159 180 0
179 159 -180 0
-180 152 153 0
-180 -152 -153 0
180 -152 153 0
180 152 -153 0
-181 182 183 0
-181 183 189 0
-181 182 189 0
181 -182 -189 0
181 -183 -189 0
181 -182 -183 0
-182 155 156 0
-182 -155 -156 0
182 -155 156 0
182 155 -156 0
-183 184 185 0
-183 184 186 0
183 -184 0
183 -185 -186 0
184 -327 -331 -343 -344 0
-184 344 0
-184 327 0
-184 343 0
-184 331 0
185 -338 -342 0
-185 338 0
-185 342 0
-186 -187 -188 0
-186 187 188 0
186 187 -188 0
186 -187 188 0
187 -343 -344 0
-187 343 0
-187 344 0
188 -327 -331 0
-188 327 0
-188 331 0
-189 -190 -191 0
-189 190 191 0
189 190 -191 0
189 -190 191 0
190 -328 -342 0
-190 328 0
-190 342 0
191 -333 -340 0
-191 333 0
-191 340 0
192 -190 -191 0
-192 190 0
-192 191 0
-193 195 196 0
-193 196 213 0
-193 194 0
-193 195 213 0
193 -194 -195 -213 0
193 -194 -196 -213 0
193 -194 -195 -196 0
-194 -169 -170 0
-194 169 170 0
194 169 -170 0
194 -169 170 0
-195 -171 -172 0
-195 171 172 0
195 171 -172 0
195 -171 172 0
196 -197 -198 0
-196 197 0
-196 198 0
-197 -173 -175 0
-197 173 175 0
197 173 -175 0
197 -173 175 0
198 -199 -200 0
-198 199 0
-198 200 0
-199 176 178 0
-199 -176 -178 0
199 -176 178 0
199 176 -178 0
200 -201 -203 0
-200 201 0
-200 203 0
-201 192 202 0
-201 -192 -202 0
201 -192 202 0
201 192 -202 0
-202 179 181 0
-202 -179 -181 0
202 -179 181 0
202 179 -181 0
203 -204 -206 0
-203 204 0
-203 206 0
-204 189 205 0
-204 -189 -205 0
204 -189 205 0
204 189 -205 0
-205 182 183 0
-205 -182 -183 0
205 -182 183 0
205 182 -183 0
-206 207 208 0
-206 208 212 0
-206 207 212 0
206 -208 -212 0
206 -207 -208 0
206 -207 -212 0
-207 185 186 0
-207 -185 -186 0
207 -185 186 0
207 185 -186 0
-208 209 211 0
-208 210 211 0
-208 209 210 0
208 -209 -210 0
208 -210 -211 0
208 -209 -211 0
209 -327 -344 0
-209 327 0
-209 344 0
210 -331 -342 0
-210 331 0
-210 342 0
211 -333 -338 0
-211 333 0
-211 338 0
212 -328 -333 0
-212 328 0
-212 333 0
213 -199 200 -214 -215 0
213 199 -200 -214 -215 0
-213 214 0
-213 -199 -200 0
-213 215 0
-213 199 200 0
-214 -197 -198 0
-214 197 198 0
214 197 -198 0
214 -197 198 0
215 -201 204 -206 -216 0
215 -201 -204 206 -216 0
-215 216 0
-215 204 206 0
-215 201 0
-215 -204 -206 0
216 212 -217 -218 -220 0
216 -212 217 -218 -220 0
-216 218 0
-216 212 217 0
-216 220 0
-216 -212 -217 0
-217 207 208 0
-217 -207 -208 0
217 -207 208 0
217 207 -208 0
-218 211 219 0
-218 -211 -219 0
218 -211 219 0
218 211 -219 0
-219 -209 -210 0
-219 209 210 0
219 209 -210 0
219 -209 210 0
220 -331 -333 -342 -344 0
-220 344 0
-220 331 0
-220 342 0
-220 333 0
-221 222 268 0
-221 -222 -268 0
221 -222 268 0
221 222 -268 0
-222 223 248 0
-222 -223 -248 0
222 -223 248 0
222 223 -248 0
-223 224 229 0
-223 229 236 0
-223 224 236 0
223 -224 -236 0
223 -229 -236 0
223 -224 -229 0
-224 225 228 0
-224 -225 -228 0
224 -225 228 0
224 225 -228 0
-225 37 226 0
-225 -37 -226 0
225 -37 226 0
225 37 -226 0
-226 53 227 0
-226 -53 -227 0
226 -53 227 0
226 53 -227 0
-227 -20 -110 0
-227 20 110 0
227 20 -110 0
227 -20 110 0
-228 32 74 0
-228 -32 -74 0
228 -32 74 0
228 32 -74 0
-229 230 232 0
-229 232 234 0
-229 230 234 0
229 -230 -234 0
229 -232 -234 0
229 -230 -232 0
-230 67 231 0
-230 -67 -231 0
230 -67 231 0
230 67 -231 0
-231 -68 -76 0
-231 68 76 0
231 68 -76 0
231 -68 76 0
-232 34 233 0
-232 -34 -233 0
232 -34 233 0
232 34 -233 0
-233 -60 -69 0
-233 60 69 0
233 60 -69 0
233 -60 69 0
-234 62 235 0
-234 62 91 0
-234 91 235 0
234 -91 -235 0
234 -62 -235 0
234 -62 -91 0
-235 92 165 0
-235 134 165 0
-235 92 134 0
235 -92 -134 0
235 -134 -165 0
235 -92 -165 0
-236 237 244 0
-236 -237 -244 0
236 -237 244 0
236 237 -244 0
-237 238 239 0
-237 -238 -239 0
237 -238 239 0
237 238 -239 0
-238 60 69 0
-238 34 60 0
-238 34 69 0
238 -34 -60 0
238 -60 -69 0
238 -34 -69 0
-239 240 241 0
-239 241 242 0
-239 240 242 0
239 -240 -242 0
239 -241 -242 0
239 -240 -241 0
-240 61 108 0
-240 107 108 0
-240 61 107 0
240 -61 -107 0
240 -107 -108 0
240 -61 -108 0
-241 98 100 0
-241 99 100 0
-241 98 99 0
241 -98 -99 0
241 -99 -100 0
241 -98 -100 0
-242 77 243 0
-242 -77 -243 0
242 -77 243 0
242 77 -243 0
-243 -33 -78 0
-243 33 78 0
243 33 -78 0
243 -33 78 0
-244 245 247 0
-244 -245 -247 0
244 -245 247 0
244 245 -247 0
-245 21 246 0
-245 -21 -246 0
245 -21 246 0
245 21 -246 0
-246 33 78 0
-246 77 78 0
-246 33 77 0
246 -33 -77 0
246 -77 -78 0
246 -33 -78 0
-247 67 76 0
-247 68 76 0
-247 67 68 0
247 -67 -68 0
247 -68 -76 0
247 -67 -76 0
-248 249 258 0
-248 -249 -258 0
248 -249 258 0
248 249 -258 0
-249 250 257 0
-249 -250 -257 0
249 -250 257 0
249 250 -257 0
-250 251 255 0
-250 -251 -255 0
250 -251 255 0
250 251 -255 0
-251 252 254 0
-251 -252 -254 0
251 -252 254 0
251 252 -254 0
-252 27 253 0
-252 -27 -253 0
252 -27 253 0
252 27 -253 0
-253 -26 -48 0
-253 26 48 0
253 26 -48 0
253 -26 48 0
-254 32 52 0
-254 51 52 0
-254 32 51 0
254 -32 -51 0
254 -51 -52 0
254 -32 -52 0
-255 15 256 0
-255 -15 -256 0
255 -15 256 0
255 15 -256 0
-256 -19 -47 0
-256 19 47 0
256 19 -47 0
256 -19 47 0
-257 238 239 0
-257 239 244 0
-257 238 244 0
257 -238 -244 0
257 -239 -244 0
257 -238 -239 0
-258 259 267 0
-258 -259 -267 0
258 -259 267 0
258 259 -267 0
-259 260 261 0
-259 -260 -261 0
259 -260 261 0
259 260 -261 0
-260 21 246 0
-260 246 247 0
-260 21 247 0
260 -21 -247 0
260 -246 -247 0
260 -21 -246 0
-261 262 265 0
-261 -262 -265 0
261 -262 265 0
261 262 -265 0
-262 263 264 0
-262 -263 -264 0
262 -263 264 0
262 263 -264 0
-263 20 110 0
-263 53 110 0
-263 20 53 0
263 -20 -53 0
263 -53 -110 0
263 -20 -110 0
-264 39 41 0
-264 40 41 0
-264 39 40 0
264 -39 -40 0
264 -40 -41 0
264 -39 -41 0
-265 49 266 0
-265 -49 -266 0
265 -49 266 0
265 49 -266 0
-266 -28 -81 0
-266 28 81 0
266 28 -81 0
266 -28 81 0
-267 37 226 0
-267 226 228 0
-267 37 228 0
267 -37 -228 0
267 -226 -228 0
267 -37 -226 0
-268 269 280 0
-268 280 282 0
-268 269 282 0
268 -269 -282 0
268 -280 -282 0
268 -269 -280 0
-269 270 272 0
-269 272 278 0
-269 270 278 0
269 -270 -278 0
269 -272 -278 0
269 -270 -272 0
-270 242 271 0
-270 -242 -271 0
270 -242 271 0
270 242 -271 0
-271 240 241 0
-271 -240 -241 0
271 -240 241 0
271 240 -241 0
-272 273 275 0
-272 275 277 0
-272 273 277 0
272 -273 -277 0
272 -275 -277 0
272 -273 -275 0
-273 99 274 0
-273 -99 -274 0
273 -99 274 0
273 99 -274 0
-274 -98 -100 0
-274 98 100 0
274 98 -100 0
274 -98 100 0
-275 107 276 0
-275 -107 -276 0
275 -107 276 0
275 107 -276 0
-276 -61 -108 0
-276 61 108 0
276 61 -108 0
276 -61 108 0
-277 125 133 0
-277 132 133 0
-277 125 132 0
277 -125 -132 0
277 -132 -133 0
277 -125 -133 0
-278 234 279 0
-278 -234 -279 0
278 -234 279 0
278 234 -279 0
-279 230 232 0
-279 -230 -232 0
279 -230 232 0
279 230 -232 0
-280 236 281 0
-280 -236 -281 0
280 -236 281 0
280 236 -281 0
-281 224 229 0
-281 -224 -229 0
281 -224 229 0
281 224 -229 0
-282 283 292 0
-282 292 294 0
-282 283 294 0
282 -283 -294 0
282 -292 -294 0
282 -283 -292 0
-283 284 286 0
-283 286 290 0
-283 284 290 0
283 -284 -290 0
283 -286 -290 0
283 -284 -286 0
-284 235 285 0
-284 -235 -285 0
284 -235 285 0
284 235 -285 0
-285 -62 -91 0
-285 62 91 0
285 62 -91 0
285 -62 91 0
-286 93 287 0
-286 287 288 0
-286 93 288 0
286 -93 -288 0
286 -287 -288 0
286 -93 -287 0
-287 126 163 0
-287 161 163 0
-287 126 161 0
287 -126 -161 0
287 -161 -163 0
287 -126 -163 0
-288 134 289 0
-288 -134 -289 0
288 -134 289 0
288 134 -289 0
-289 -92 -165 0
-289 92 165 0
289 92 -165 0
289 -92 165 0
-290 277 291 0
-290 -277 -291 0
290 -277 291 0
290 277 -291 0
-291 273 275 0
-291 -273 -275 0
291 -273 275 0
291 273 -275 0
-292 278 293 0
-292 -278 -293 0
292 -278 293 0
292 278 -293 0
-293 270 272 0
-293 -270 -272 0
293 -270 272 0
293 270 -272 0
-294 295 300 0
-294 300 302 0
-294 295 302 0
294 -295 -302 0
294 -300 -302 0
294 -295 -300 0
-295 296 297 0
-295 297 298 0
-295 296 298 0
295 -296 -298 0
295 -297 -298 0
295 -296 -297 0
-296 125 131 0
-296 -125 -131 0
296 -125 131 0
296 125 -131 0
-297 154 162 0
-297 127 154 0
-297 127 162 0
297 -127 -154 0
297 -154 -162 0
297 -127 -162 0
-298 288 299 0
-298 -288 -299 0
298 -288 299 0
298 288 -299 0
-299 93 287 0
-299 -93 -287 0
299 -93 287 0
299 93 -287 0
-300 290 301 0
-300 -290 -301 0
300 -290 301 0
300 290 -301 0
-301 284 286 0
-301 -284 -286 0
301 -284 286 0
301 284 -286 0
-302 303 309 0
-302 309 311 0
-302 303 311 0
302 -303 -311 0
302 -309 -311 0
302 -303 -309 0
-303 304 305 0
-303 305 307 0
-303 304 307 0
303 -304 -307 0
303 -305 -307 0
303 -304 -305 0
-304 155 191 0
-304 190 191 0
-304 155 190 0
304 -155 -190 0
304 -190 -191 0
304 -155 -191 0
-305 161 306 0
-305 -161 -306 0
305 -161 306 0
305 161 -306 0
-306 -126 -163 0
-306 126 163 0
306 126 -163 0
306 -126 163 0
-307 127 308 0
-307 -127 -308 0
307 -127 308 0
307 127 -308 0
-308 -154 -162 0
-308 154 162 0
308 154 -162 0
308 -154 162 0
-309 298 310 0
-309 -298 -310 0
309 -298 310 0
309 298 -310 0
-310 296 297 0
-310 -296 -297 0
310 -296 297 0
310 296 -297 0
-311 312 315 0
-311 315 317 0
-311 312 317 0
311 -312 -317 0
311 -315 -317 0
311 -312 -315 0
-312 156 313 0
-312 156 184 0
-312 184 313 0
312 -184 -313 0
312 -156 -313 0
312 -156 -184 0
-313 190 314 0
-313 -190 -314 0
313 -190 314 0
313 190 -314 0
-314 -155 -191 0
-314 155 191 0
314 155 -191 0
314 -155 191 0
-315 307 316 0
-315 -307 -316 0
315 -307 316 0
315 307 -316 0
-316 304 305 0
-316 -304 -305 0
316 -304 305 0
316 304 -305 0
-317 318 320 0
-317 320 322 0
-317 318 322 0
317 -318 -322 0
317 -320 -322 0
317 -318 -320 0
-318 185 319 0
-318 212 319 0
-318 185 212 0
318 -185 -212 0
318 -212 -319 0
318 -185 -319 0
319 -210 -211 0
-319 210 0
-319 211 0
-320 313 321 0
-320 -313 -321 0
320 -313 321 0
320 313 -321 0
-321 -156 -184 0
-321 156 184 0
321 156 -184 0
321 -156 184 0
-322 186 323 0
-322 323 325 0
-322 186 325 0
322 -186 -325 0
322 -323 -325 0
322 -186 -323 0
-323 319 324 0
-323 -319 -324 0
323 -319 324 0
323 319 -324 0
-324 -185 -212 0
-324 185 212 0
324 185 -212 0
324 -185 212 0
-325 220 326 0
-325 209 220 0
-325 209 326 0
325 -209 -220 0
325 -220 -326 0
325 -209 -326 0
-326 -210 -211 0
-326 210 211 0
326 210 -211 0
326 -210 211 0
-347 0
2 0

